NAME: Li-22
BEST_KNOWN: 14584.42
COMMENT: 14584.420000
DIMENSION: 601
CAPACITY: 900
DISTANCE: 1000
EDGE_WEIGHT_FORMAT: FUNCTION
EDGE_WEIGHT_TYPE: EXACT_2D
NODE_COORD_SECTION
1 0.00000 0.00000
2 30.00000 0.00000
3 29.83570 3.13590
4 29.34440 6.23740
5 28.53170 9.27050
6 27.40640 12.20210
7 25.98080 15.00000
8 24.27050 17.63360
9 22.29430 20.07390
10 20.07390 22.29430
11 17.63360 24.27050
12 15.00000 25.98080
13 12.20210 27.40640
14 9.27050 28.53170
15 6.23740 29.34440
16 3.13590 29.83570
17 0.00000 30.00000
18 -3.13590 29.83570
19 -6.23740 29.34440
20 -9.27050 28.53170
21 -12.20210 27.40640
22 -15.00000 25.98080
23 -17.63360 24.27050
24 -20.07390 22.29430
25 -22.29430 20.07390
26 -24.27050 17.63360
27 -25.98080 15.00000
28 -27.40640 12.20210
29 -28.53170 9.27050
30 -29.34440 6.23740
31 -29.83570 3.13590
32 -30.00000 0.00000
33 -29.83570 -3.13590
34 -29.34440 -6.23740
35 -28.53170 -9.27050
36 -27.40640 -12.20210
37 -25.98080 -15.00000
38 -24.27050 -17.63360
39 -22.29430 -20.07390
40 -20.07390 -22.29430
41 -17.63360 -24.27050
42 -15.00000 -25.98080
43 -12.20210 -27.40640
44 -9.27050 -28.53170
45 -6.23740 -29.34440
46 -3.13590 -29.83570
47 -0.00000 -30.00000
48 3.13590 -29.83570
49 6.23740 -29.34440
50 9.27050 -28.53170
51 12.20210 -27.40640
52 15.00000 -25.98080
53 17.63360 -24.27050
54 20.07390 -22.29430
55 22.29430 -20.07390
56 24.27050 -17.63360
57 25.98080 -15.00000
58 27.40640 -12.20210
59 28.53170 -9.27050
60 29.34440 -6.23740
61 29.83570 -3.13590
62 60.00000 0.00000
63 59.67130 6.27170
64 58.68890 12.47470
65 57.06340 18.54100
66 54.81270 24.40420
67 51.96150 30.00000
68 48.54100 35.26710
69 44.58870 40.14780
70 40.14780 44.58870
71 35.26710 48.54100
72 30.00000 51.96150
73 24.40420 54.81270
74 18.54100 57.06340
75 12.47470 58.68890
76 6.27170 59.67130
77 0.00000 60.00000
78 -6.27170 59.67130
79 -12.47470 58.68890
80 -18.54100 57.06340
81 -24.40420 54.81270
82 -30.00000 51.96150
83 -35.26710 48.54100
84 -40.14780 44.58870
85 -44.58870 40.14780
86 -48.54100 35.26710
87 -51.96150 30.00000
88 -54.81270 24.40420
89 -57.06340 18.54100
90 -58.68890 12.47470
91 -59.67130 6.27170
92 -60.00000 0.00000
93 -59.67130 -6.27170
94 -58.68890 -12.47470
95 -57.06340 -18.54100
96 -54.81270 -24.40420
97 -51.96150 -30.00000
98 -48.54100 -35.26710
99 -44.58870 -40.14780
100 -40.14780 -44.58870
101 -35.26710 -48.54100
102 -30.00000 -51.96150
103 -24.40420 -54.81270
104 -18.54100 -57.06340
105 -12.47470 -58.68890
106 -6.27170 -59.67130
107 -0.00000 -60.00000
108 6.27170 -59.67130
109 12.47470 -58.68890
110 18.54100 -57.06340
111 24.40420 -54.81270
112 30.00000 -51.96150
113 35.26710 -48.54100
114 40.14780 -44.58870
115 44.58870 -40.14780
116 48.54100 -35.26710
117 51.96150 -30.00000
118 54.81270 -24.40420
119 57.06340 -18.54100
120 58.68890 -12.47470
121 59.67130 -6.27170
122 90.00000 0.00000
123 89.50700 9.40760
124 88.03330 18.71210
125 85.59510 27.81150
126 82.21910 36.60630
127 77.94230 45.00000
128 72.81150 52.90070
129 66.88300 60.22180
130 60.22180 66.88300
131 52.90070 72.81150
132 45.00000 77.94230
133 36.60630 82.21910
134 27.81150 85.59510
135 18.71210 88.03330
136 9.40760 89.50700
137 0.00000 90.00000
138 -9.40760 89.50700
139 -18.71210 88.03330
140 -27.81150 85.59510
141 -36.60630 82.21910
142 -45.00000 77.94230
143 -52.90070 72.81150
144 -60.22180 66.88300
145 -66.88300 60.22180
146 -72.81150 52.90070
147 -77.94230 45.00000
148 -82.21910 36.60630
149 -85.59510 27.81150
150 -88.03330 18.71210
151 -89.50700 9.40760
152 -90.00000 0.00000
153 -89.50700 -9.40760
154 -88.03330 -18.71210
155 -85.59510 -27.81150
156 -82.21910 -36.60630
157 -77.94230 -45.00000
158 -72.81150 -52.90070
159 -66.88300 -60.22180
160 -60.22180 -66.88300
161 -52.90070 -72.81150
162 -45.00000 -77.94230
163 -36.60630 -82.21910
164 -27.81150 -85.59510
165 -18.71210 -88.03330
166 -9.40760 -89.50700
167 -0.00000 -90.00000
168 9.40760 -89.50700
169 18.71210 -88.03330
170 27.81150 -85.59510
171 36.60630 -82.21910
172 45.00000 -77.94230
173 52.90070 -72.81150
174 60.22180 -66.88300
175 66.88300 -60.22180
176 72.81150 -52.90070
177 77.94230 -45.00000
178 82.21910 -36.60630
179 85.59510 -27.81150
180 88.03330 -18.71210
181 89.50700 -9.40760
182 120.00000 0.00000
183 119.34260 12.54340
184 117.37770 24.94940
185 114.12680 37.08200
186 109.62550 48.80840
187 103.92300 60.00000
188 97.08200 70.53420
189 89.17740 80.29570
190 80.29570 89.17740
191 70.53420 97.08200
192 60.00000 103.92300
193 48.80840 109.62550
194 37.08200 114.12680
195 24.94940 117.37770
196 12.54340 119.34260
197 0.00000 120.00000
198 -12.54340 119.34260
199 -24.94940 117.37770
200 -37.08200 114.12680
201 -48.80840 109.62550
202 -60.00000 103.92300
203 -70.53420 97.08200
204 -80.29570 89.17740
205 -89.17740 80.29570
206 -97.08200 70.53420
207 -103.92300 60.00000
208 -109.62550 48.80840
209 -114.12680 37.08200
210 -117.37770 24.94940
211 -119.34260 12.54340
212 -120.00000 0.00000
213 -119.34260 -12.54340
214 -117.37770 -24.94940
215 -114.12680 -37.08200
216 -109.62550 -48.80840
217 -103.92300 -60.00000
218 -97.08200 -70.53420
219 -89.17740 -80.29570
220 -80.29570 -89.17740
221 -70.53420 -97.08200
222 -60.00000 -103.92300
223 -48.80840 -109.62550
224 -37.08200 -114.12680
225 -24.94940 -117.37770
226 -12.54340 -119.34260
227 -0.00000 -120.00000
228 12.54340 -119.34260
229 24.94940 -117.37770
230 37.08200 -114.12680
231 48.80840 -109.62550
232 60.00000 -103.92300
233 70.53420 -97.08200
234 80.29570 -89.17740
235 89.17740 -80.29570
236 97.08200 -70.53420
237 103.92300 -60.00000
238 109.62550 -48.80840
239 114.12680 -37.08200
240 117.37770 -24.94940
241 119.34260 -12.54340
242 150.00000 0.00000
243 149.17830 15.67930
244 146.72211 31.18680
245 142.65849 46.35250
246 137.03180 61.01050
247 129.90379 75.00000
248 121.35250 88.16780
249 111.47170 100.36960
250 100.36960 111.47170
251 88.16780 121.35250
252 75.00000 129.90379
253 61.01050 137.03180
254 46.35250 142.65849
255 31.18680 146.72211
256 15.67930 149.17830
257 0.00000 150.00000
258 -15.67930 149.17830
259 -31.18680 146.72211
260 -46.35250 142.65849
261 -61.01050 137.03180
262 -75.00000 129.90379
263 -88.16780 121.35250
264 -100.36960 111.47170
265 -111.47170 100.36960
266 -121.35250 88.16780
267 -129.90379 75.00000
268 -137.03180 61.01050
269 -142.65849 46.35250
270 -146.72211 31.18680
271 -149.17830 15.67930
272 -150.00000 0.00000
273 -149.17830 -15.67930
274 -146.72211 -31.18680
275 -142.65849 -46.35250
276 -137.03180 -61.01050
277 -129.90379 -75.00000
278 -121.35250 -88.16780
279 -111.47170 -100.36960
280 -100.36960 -111.47170
281 -88.16780 -121.35250
282 -75.00000 -129.90379
283 -61.01050 -137.03180
284 -46.35250 -142.65849
285 -31.18680 -146.72211
286 -15.67930 -149.17830
287 -0.00000 -150.00000
288 15.67930 -149.17830
289 31.18680 -146.72211
290 46.35250 -142.65849
291 61.01050 -137.03180
292 75.00000 -129.90379
293 88.16780 -121.35250
294 100.36960 -111.47170
295 111.47170 -100.36960
296 121.35250 -88.16780
297 129.90379 -75.00000
298 137.03180 -61.01050
299 142.65849 -46.35250
300 146.72211 -31.18680
301 149.17830 -15.67930
302 180.00000 0.00000
303 179.01390 18.81510
304 176.06660 37.42410
305 171.19020 55.62310
306 164.43820 73.21260
307 155.88460 90.00000
308 145.62309 105.80130
309 133.76610 120.44350
310 120.44350 133.76610
311 105.80130 145.62309
312 90.00000 155.88460
313 73.21260 164.43820
314 55.62310 171.19020
315 37.42410 176.06660
316 18.81510 179.01390
317 0.00000 180.00000
318 -18.81510 179.01390
319 -37.42410 176.06660
320 -55.62310 171.19020
321 -73.21260 164.43820
322 -90.00000 155.88460
323 -105.80130 145.62309
324 -120.44350 133.76610
325 -133.76610 120.44350
326 -145.62309 105.80130
327 -155.88460 90.00000
328 -164.43820 73.21260
329 -171.19020 55.62310
330 -176.06660 37.42410
331 -179.01390 18.81510
332 -180.00000 0.00000
333 -179.01390 -18.81510
334 -176.06660 -37.42410
335 -171.19020 -55.62310
336 -164.43820 -73.21260
337 -155.88460 -90.00000
338 -145.62309 -105.80130
339 -133.76610 -120.44350
340 -120.44350 -133.76610
341 -105.80130 -145.62309
342 -90.00000 -155.88460
343 -73.21260 -164.43820
344 -55.62310 -171.19020
345 -37.42410 -176.06660
346 -18.81510 -179.01390
347 -0.00000 -180.00000
348 18.81510 -179.01390
349 37.42410 -176.06660
350 55.62310 -171.19020
351 73.21260 -164.43820
352 90.00000 -155.88460
353 105.80130 -145.62309
354 120.44350 -133.76610
355 133.76610 -120.44350
356 145.62309 -105.80130
357 155.88460 -90.00000
358 164.43820 -73.21260
359 171.19020 -55.62310
360 176.06660 -37.42410
361 179.01390 -18.81510
362 210.00000 0.00000
363 208.84959 21.95100
364 205.41100 43.66150
365 199.72189 64.89360
366 191.84450 85.41470
367 181.86530 105.00000
368 169.89360 123.43490
369 156.06039 140.51740
370 140.51740 156.06039
371 123.43490 169.89360
372 105.00000 181.86530
373 85.41470 191.84450
374 64.89360 199.72189
375 43.66150 205.41100
376 21.95100 208.84959
377 0.00000 210.00000
378 -21.95100 208.84959
379 -43.66150 205.41100
380 -64.89360 199.72189
381 -85.41470 191.84450
382 -105.00000 181.86530
383 -123.43490 169.89360
384 -140.51740 156.06039
385 -156.06039 140.51740
386 -169.89360 123.43490
387 -181.86530 105.00000
388 -191.84450 85.41470
389 -199.72189 64.89360
390 -205.41100 43.66150
391 -208.84959 21.95100
392 -210.00000 0.00000
393 -208.84959 -21.95100
394 -205.41100 -43.66150
395 -199.72189 -64.89360
396 -191.84450 -85.41470
397 -181.86530 -105.00000
398 -169.89360 -123.43490
399 -156.06039 -140.51740
400 -140.51740 -156.06039
401 -123.43490 -169.89360
402 -105.00000 -181.86530
403 -85.41470 -191.84450
404 -64.89360 -199.72189
405 -43.66150 -205.41100
406 -21.95100 -208.84959
407 -0.00000 -210.00000
408 21.95100 -208.84959
409 43.66150 -205.41100
410 64.89360 -199.72189
411 85.41470 -191.84450
412 105.00000 -181.86530
413 123.43490 -169.89360
414 140.51740 -156.06039
415 156.06039 -140.51740
416 169.89360 -123.43490
417 181.86530 -105.00000
418 191.84450 -85.41470
419 199.72189 -64.89360
420 205.41100 -43.66150
421 208.84959 -21.95100
422 240.00000 0.00000
423 238.68530 25.08680
424 234.75540 49.89880
425 228.25360 74.16410
426 219.25090 97.61680
427 207.84610 120.00000
428 194.16409 141.06850
429 178.35480 160.59129
430 160.59129 178.35480
431 141.06850 194.16409
432 120.00000 207.84610
433 97.61680 219.25090
434 74.16410 228.25360
435 49.89880 234.75540
436 25.08680 238.68530
437 0.00000 240.00000
438 -25.08680 238.68530
439 -49.89880 234.75540
440 -74.16410 228.25360
441 -97.61680 219.25090
442 -120.00000 207.84610
443 -141.06850 194.16409
444 -160.59129 178.35480
445 -178.35480 160.59129
446 -194.16409 141.06850
447 -207.84610 120.00000
448 -219.25090 97.61680
449 -228.25360 74.16410
450 -234.75540 49.89880
451 -238.68530 25.08680
452 -240.00000 0.00000
453 -238.68530 -25.08680
454 -234.75540 -49.89880
455 -228.25360 -74.16410
456 -219.25090 -97.61680
457 -207.84610 -120.00000
458 -194.16409 -141.06850
459 -178.35480 -160.59129
460 -160.59129 -178.35480
461 -141.06850 -194.16409
462 -120.00000 -207.84610
463 -97.61680 -219.25090
464 -74.16410 -228.25360
465 -49.89880 -234.75540
466 -25.08680 -238.68530
467 -0.00000 -240.00000
468 25.08680 -238.68530
469 49.89880 -234.75540
470 74.16410 -228.25360
471 97.61680 -219.25090
472 120.00000 -207.84610
473 141.06850 -194.16409
474 160.59129 -178.35480
475 178.35480 -160.59129
476 194.16409 -141.06850
477 207.84610 -120.00000
478 219.25090 -97.61680
479 228.25360 -74.16410
480 234.75540 -49.89880
481 238.68530 -25.08680
482 270.00000 0.00000
483 268.52090 28.22270
484 264.09991 56.13620
485 256.78531 83.43460
486 246.65730 109.81890
487 233.82690 135.00000
488 218.43460 158.70200
489 200.64909 180.66530
490 180.66530 200.64909
491 158.70200 218.43460
492 135.00000 233.82690
493 109.81890 246.65730
494 83.43460 256.78531
495 56.13620 264.09991
496 28.22270 268.52090
497 0.00000 270.00000
498 -28.22270 268.52090
499 -56.13620 264.09991
500 -83.43460 256.78531
501 -109.81890 246.65730
502 -135.00000 233.82690
503 -158.70200 218.43460
504 -180.66530 200.64909
505 -200.64909 180.66530
506 -218.43460 158.70200
507 -233.82690 135.00000
508 -246.65730 109.81890
509 -256.78531 83.43460
510 -264.09991 56.13620
511 -268.52090 28.22270
512 -270.00000 0.00000
513 -268.52090 -28.22270
514 -264.09991 -56.13620
515 -256.78531 -83.43460
516 -246.65730 -109.81890
517 -233.82690 -135.00000
518 -218.43460 -158.70200
519 -200.64909 -180.66530
520 -180.66530 -200.64909
521 -158.70200 -218.43460
522 -135.00000 -233.82690
523 -109.81890 -246.65730
524 -83.43460 -256.78531
525 -56.13620 -264.09991
526 -28.22270 -268.52090
527 -0.00000 -270.00000
528 28.22270 -268.52090
529 56.13620 -264.09991
530 83.43460 -256.78531
531 109.81890 -246.65730
532 135.00000 -233.82690
533 158.70200 -218.43460
534 180.66530 -200.64909
535 200.64909 -180.66530
536 218.43460 -158.70200
537 233.82690 -135.00000
538 246.65730 -109.81890
539 256.78531 -83.43460
540 264.09991 -56.13620
541 268.52090 -28.22270
542 300.00000 0.00000
543 298.35660 31.35850
544 293.44431 62.37350
545 285.31699 92.70510
546 274.06360 122.02100
547 259.80759 150.00000
548 242.70509 176.33560
549 222.94341 200.73920
550 200.73920 222.94341
551 176.33560 242.70509
552 150.00000 259.80759
553 122.02100 274.06360
554 92.70510 285.31699
555 62.37350 293.44431
556 31.35850 298.35660
557 0.00000 300.00000
558 -31.35850 298.35660
559 -62.37350 293.44431
560 -92.70510 285.31699
561 -122.02100 274.06360
562 -150.00000 259.80759
563 -176.33560 242.70509
564 -200.73920 222.94341
565 -222.94341 200.73920
566 -242.70509 176.33560
567 -259.80759 150.00000
568 -274.06360 122.02100
569 -285.31699 92.70510
570 -293.44431 62.37350
571 -298.35660 31.35850
572 -300.00000 0.00000
573 -298.35660 -31.35850
574 -293.44431 -62.37350
575 -285.31699 -92.70510
576 -274.06360 -122.02100
577 -259.80759 -150.00000
578 -242.70509 -176.33560
579 -222.94341 -200.73920
580 -200.73920 -222.94341
581 -176.33560 -242.70509
582 -150.00000 -259.80759
583 -122.02100 -274.06360
584 -92.70510 -285.31699
585 -62.37350 -293.44431
586 -31.35850 -298.35660
587 -0.00000 -300.00000
588 31.35850 -298.35660
589 62.37350 -293.44431
590 92.70510 -285.31699
591 122.02100 -274.06360
592 150.00000 -259.80759
593 176.33560 -242.70509
594 200.73920 -222.94341
595 222.94341 -200.73920
596 242.70509 -176.33560
597 259.80759 -150.00000
598 274.06360 -122.02100
599 285.31699 -92.70510
600 293.44431 -62.37350
601 298.35660 -31.35850
DEMAND_SECTION
1 0
2 10
3 30
4 30
5 10
6 10
7 30
8 30
9 10
10 10
11 30
12 30
13 10
14 10
15 30
16 30
17 10
18 10
19 30
20 30
21 10
22 10
23 30
24 30
25 10
26 10
27 30
28 30
29 10
30 10
31 30
32 30
33 10
34 10
35 30
36 30
37 10
38 10
39 30
40 30
41 10
42 10
43 30
44 30
45 10
46 10
47 30
48 30
49 10
50 10
51 30
52 30
53 10
54 10
55 30
56 30
57 10
58 10
59 30
60 30
61 10
62 10
63 30
64 30
65 10
66 10
67 30
68 30
69 10
70 10
71 30
72 30
73 10
74 10
75 30
76 30
77 10
78 10
79 30
80 30
81 10
82 10
83 30
84 30
85 10
86 10
87 30
88 30
89 10
90 10
91 30
92 30
93 10
94 10
95 30
96 30
97 10
98 10
99 30
100 30
101 10
102 10
103 30
104 30
105 10
106 10
107 30
108 30
109 10
110 10
111 30
112 30
113 10
114 10
115 30
116 30
117 10
118 10
119 30
120 30
121 10
122 10
123 30
124 30
125 10
126 10
127 30
128 30
129 10
130 10
131 30
132 30
133 10
134 10
135 30
136 30
137 10
138 10
139 30
140 30
141 10
142 10
143 30
144 30
145 10
146 10
147 30
148 30
149 10
150 10
151 30
152 30
153 10
154 10
155 30
156 30
157 10
158 10
159 30
160 30
161 10
162 10
163 30
164 30
165 10
166 10
167 30
168 30
169 10
170 10
171 30
172 30
173 10
174 10
175 30
176 30
177 10
178 10
179 30
180 30
181 10
182 10
183 30
184 30
185 10
186 10
187 30
188 30
189 10
190 10
191 30
192 30
193 10
194 10
195 30
196 30
197 10
198 10
199 30
200 30
201 10
202 10
203 30
204 30
205 10
206 10
207 30
208 30
209 10
210 10
211 30
212 30
213 10
214 10
215 30
216 30
217 10
218 10
219 30
220 30
221 10
222 10
223 30
224 30
225 10
226 10
227 30
228 30
229 10
230 10
231 30
232 30
233 10
234 10
235 30
236 30
237 10
238 10
239 30
240 30
241 10
242 10
243 30
244 30
245 10
246 10
247 30
248 30
249 10
250 10
251 30
252 30
253 10
254 10
255 30
256 30
257 10
258 10
259 30
260 30
261 10
262 10
263 30
264 30
265 10
266 10
267 30
268 30
269 10
270 10
271 30
272 30
273 10
274 10
275 30
276 30
277 10
278 10
279 30
280 30
281 10
282 10
283 30
284 30
285 10
286 10
287 30
288 30
289 10
290 10
291 30
292 30
293 10
294 10
295 30
296 30
297 10
298 10
299 30
300 30
301 10
302 10
303 30
304 30
305 10
306 10
307 30
308 30
309 10
310 10
311 30
312 30
313 10
314 10
315 30
316 30
317 10
318 10
319 30
320 30
321 10
322 10
323 30
324 30
325 10
326 10
327 30
328 30
329 10
330 10
331 30
332 30
333 10
334 10
335 30
336 30
337 10
338 10
339 30
340 30
341 10
342 10
343 30
344 30
345 10
346 10
347 30
348 30
349 10
350 10
351 30
352 30
353 10
354 10
355 30
356 30
357 10
358 10
359 30
360 30
361 10
362 10
363 30
364 30
365 10
366 10
367 30
368 30
369 10
370 10
371 30
372 30
373 10
374 10
375 30
376 30
377 10
378 10
379 30
380 30
381 10
382 10
383 30
384 30
385 10
386 10
387 30
388 30
389 10
390 10
391 30
392 30
393 10
394 10
395 30
396 30
397 10
398 10
399 30
400 30
401 10
402 10
403 30
404 30
405 10
406 10
407 30
408 30
409 10
410 10
411 30
412 30
413 10
414 10
415 30
416 30
417 10
418 10
419 30
420 30
421 10
422 10
423 30
424 30
425 10
426 10
427 30
428 30
429 10
430 10
431 30
432 30
433 10
434 10
435 30
436 30
437 10
438 10
439 30
440 30
441 10
442 10
443 30
444 30
445 10
446 10
447 30
448 30
449 10
450 10
451 30
452 30
453 10
454 10
455 30
456 30
457 10
458 10
459 30
460 30
461 10
462 10
463 30
464 30
465 10
466 10
467 30
468 30
469 10
470 10
471 30
472 30
473 10
474 10
475 30
476 30
477 10
478 10
479 30
480 30
481 10
482 10
483 30
484 30
485 10
486 10
487 30
488 30
489 10
490 10
491 30
492 30
493 10
494 10
495 30
496 30
497 10
498 10
499 30
500 30
501 10
502 10
503 30
504 30
505 10
506 10
507 30
508 30
509 10
510 10
511 30
512 30
513 10
514 10
515 30
516 30
517 10
518 10
519 30
520 30
521 10
522 10
523 30
524 30
525 10
526 10
527 30
528 30
529 10
530 10
531 30
532 30
533 10
534 10
535 30
536 30
537 10
538 10
539 30
540 30
541 10
542 10
543 30
544 30
545 10
546 10
547 30
548 30
549 10
550 10
551 30
552 30
553 10
554 10
555 30
556 30
557 10
558 10
559 30
560 30
561 10
562 10
563 30
564 30
565 10
566 10
567 30
568 30
569 10
570 10
571 30
572 30
573 10
574 10
575 30
576 30
577 10
578 10
579 30
580 30
581 10
582 10
583 30
584 30
585 10
586 10
587 30
588 30
589 10
590 10
591 30
592 30
593 10
594 10
595 30
596 30
597 10
598 10
599 30
600 30
601 10
DEPOT_SECTION
1
-1
EOF
